letting n =  10
letting blocks =  [[1, 4], [1, 9], [2, 4], [2, 8], [3, 1], [3, 4], [3, 6], [3, 8], [3, 10], [4, 1], [4, 3], [4, 4], [4, 5], [4, 7], [4, 10], [5, 2], [5, 3], [5, 6], [5, 7], [5, 8], [5, 10], [6, 6], [6, 9], [6, 10], [7, 4], [7, 10], [8, 3], [8, 5], [8, 6], [8, 7], [8, 8], [8, 9], [9, 1], [9, 4], [9, 6], [9, 9], [9, 10], [10, 3], [10, 5], [10, 9]]
